\ LP format - for model browsing. Use MPS format to capture full model detail.
\ Signature: 0xb867c7c28775bb89
Minimize
  Cmax
Subject To
 assign_0_0: y_0_0_0 = 1
 proc_time_0_0: Ps_0_0 - 43 y_0_0_0 = 0
 assign_0_1: y_0_0_1 + y_1_0_1 = 1
 proc_time_0_1: Ps_0_1 - 87 y_0_0_1 - 95 y_1_0_1 = 0
 seq_0_0_to_1: t_0_0 + Ps_0_0 - t_0_1 <= 0
 assign_1_0: y_0_1_0 + y_1_1_0 = 1
 proc_time_1_0: Ps_1_0 - 63 y_0_1_0 - 53 y_1_1_0 = 0
 assign_1_1: y_1_1_1 = 1
 proc_time_1_1: Ps_1_1 - 73 y_1_1_1 = 0
 seq_1_0_to_1: t_1_0 + Ps_1_0 - t_1_1 <= 0
 assign_2_0: y_0_2_0 + y_1_2_0 = 1
 proc_time_2_0: Ps_2_0 - 125 y_0_2_0 - 135 y_1_2_0 = 0
 assign_2_1: y_0_2_1 + y_1_2_1 = 1
 proc_time_2_1: Ps_2_1 - 43 y_0_2_1 - 61 y_1_2_1 = 0
 seq_2_0_to_1: t_2_0 + Ps_2_0 - t_2_1 <= 0
 no_overlap1_0_0_0_0_1: t_0_0 + Ps_0_0 + 1411 y_0_0_0 - t_0_1
   + 1411 y_0_0_1 + 1411 z_0_0_0_0_1 <= 4233
 no_overlap2_0_0_0_0_1: - t_0_0 + 1411 y_0_0_0 + t_0_1 + Ps_0_1
   + 1411 y_0_0_1 - 1411 z_0_0_0_0_1 <= 2822
 no_overlap1_0_0_0_1_0: t_0_0 + Ps_0_0 + 1411 y_0_0_0 - t_1_0
   + 1411 y_0_1_0 + 1411 z_0_0_0_1_0 <= 4233
 no_overlap2_0_0_0_1_0: - t_0_0 + 1411 y_0_0_0 + t_1_0 + Ps_1_0
   + 1411 y_0_1_0 - 1411 z_0_0_0_1_0 <= 2822
 no_overlap1_0_0_0_2_0: t_0_0 + Ps_0_0 + 1411 y_0_0_0 - t_2_0
   + 1411 y_0_2_0 + 1411 z_0_0_0_2_0 <= 4233
 no_overlap2_0_0_0_2_0: - t_0_0 + 1411 y_0_0_0 + t_2_0 + Ps_2_0
   + 1411 y_0_2_0 - 1411 z_0_0_0_2_0 <= 2822
 no_overlap1_0_0_0_2_1: t_0_0 + Ps_0_0 + 1411 y_0_0_0 - t_2_1
   + 1411 y_0_2_1 + 1411 z_0_0_0_2_1 <= 4233
 no_overlap2_0_0_0_2_1: - t_0_0 + 1411 y_0_0_0 + t_2_1 + Ps_2_1
   + 1411 y_0_2_1 - 1411 z_0_0_0_2_1 <= 2822
 no_overlap1_0_0_1_1_0: t_0_1 + Ps_0_1 + 1411 y_0_0_1 - t_1_0
   + 1411 y_0_1_0 + 1411 z_0_0_1_1_0 <= 4233
 no_overlap2_0_0_1_1_0: - t_0_1 + 1411 y_0_0_1 + t_1_0 + Ps_1_0
   + 1411 y_0_1_0 - 1411 z_0_0_1_1_0 <= 2822
 no_overlap1_0_0_1_2_0: t_0_1 + Ps_0_1 + 1411 y_0_0_1 - t_2_0
   + 1411 y_0_2_0 + 1411 z_0_0_1_2_0 <= 4233
 no_overlap2_0_0_1_2_0: - t_0_1 + 1411 y_0_0_1 + t_2_0 + Ps_2_0
   + 1411 y_0_2_0 - 1411 z_0_0_1_2_0 <= 2822
 no_overlap1_0_0_1_2_1: t_0_1 + Ps_0_1 + 1411 y_0_0_1 - t_2_1
   + 1411 y_0_2_1 + 1411 z_0_0_1_2_1 <= 4233
 no_overlap2_0_0_1_2_1: - t_0_1 + 1411 y_0_0_1 + t_2_1 + Ps_2_1
   + 1411 y_0_2_1 - 1411 z_0_0_1_2_1 <= 2822
 no_overlap1_0_1_0_2_0: t_1_0 + Ps_1_0 + 1411 y_0_1_0 - t_2_0
   + 1411 y_0_2_0 + 1411 z_0_1_0_2_0 <= 4233
 no_overlap2_0_1_0_2_0: - t_1_0 + 1411 y_0_1_0 + t_2_0 + Ps_2_0
   + 1411 y_0_2_0 - 1411 z_0_1_0_2_0 <= 2822
 no_overlap1_0_1_0_2_1: t_1_0 + Ps_1_0 + 1411 y_0_1_0 - t_2_1
   + 1411 y_0_2_1 + 1411 z_0_1_0_2_1 <= 4233
 no_overlap2_0_1_0_2_1: - t_1_0 + 1411 y_0_1_0 + t_2_1 + Ps_2_1
   + 1411 y_0_2_1 - 1411 z_0_1_0_2_1 <= 2822
 no_overlap1_0_2_0_2_1: t_2_0 + Ps_2_0 + 1411 y_0_2_0 - t_2_1
   + 1411 y_0_2_1 + 1411 z_0_2_0_2_1 <= 4233
 no_overlap2_0_2_0_2_1: - t_2_0 + 1411 y_0_2_0 + t_2_1 + Ps_2_1
   + 1411 y_0_2_1 - 1411 z_0_2_0_2_1 <= 2822
 no_overlap1_1_0_1_1_0: t_0_1 + Ps_0_1 + 1411 y_1_0_1 - t_1_0
   + 1411 y_1_1_0 + 1411 z_1_0_1_1_0 <= 4233
 no_overlap2_1_0_1_1_0: - t_0_1 + 1411 y_1_0_1 + t_1_0 + Ps_1_0
   + 1411 y_1_1_0 - 1411 z_1_0_1_1_0 <= 2822
 no_overlap1_1_0_1_1_1: t_0_1 + Ps_0_1 + 1411 y_1_0_1 - t_1_1
   + 1411 y_1_1_1 + 1411 z_1_0_1_1_1 <= 4233
 no_overlap2_1_0_1_1_1: - t_0_1 + 1411 y_1_0_1 + t_1_1 + Ps_1_1
   + 1411 y_1_1_1 - 1411 z_1_0_1_1_1 <= 2822
 no_overlap1_1_0_1_2_0: t_0_1 + Ps_0_1 + 1411 y_1_0_1 - t_2_0
   + 1411 y_1_2_0 + 1411 z_1_0_1_2_0 <= 4233
 no_overlap2_1_0_1_2_0: - t_0_1 + 1411 y_1_0_1 + t_2_0 + Ps_2_0
   + 1411 y_1_2_0 - 1411 z_1_0_1_2_0 <= 2822
 no_overlap1_1_0_1_2_1: t_0_1 + Ps_0_1 + 1411 y_1_0_1 - t_2_1
   + 1411 y_1_2_1 + 1411 z_1_0_1_2_1 <= 4233
 no_overlap2_1_0_1_2_1: - t_0_1 + 1411 y_1_0_1 + t_2_1 + Ps_2_1
   + 1411 y_1_2_1 - 1411 z_1_0_1_2_1 <= 2822
 no_overlap1_1_1_0_1_1: t_1_0 + Ps_1_0 + 1411 y_1_1_0 - t_1_1
   + 1411 y_1_1_1 + 1411 z_1_1_0_1_1 <= 4233
 no_overlap2_1_1_0_1_1: - t_1_0 + 1411 y_1_1_0 + t_1_1 + Ps_1_1
   + 1411 y_1_1_1 - 1411 z_1_1_0_1_1 <= 2822
 no_overlap1_1_1_0_2_0: t_1_0 + Ps_1_0 + 1411 y_1_1_0 - t_2_0
   + 1411 y_1_2_0 + 1411 z_1_1_0_2_0 <= 4233
 no_overlap2_1_1_0_2_0: - t_1_0 + 1411 y_1_1_0 + t_2_0 + Ps_2_0
   + 1411 y_1_2_0 - 1411 z_1_1_0_2_0 <= 2822
 no_overlap1_1_1_0_2_1: t_1_0 + Ps_1_0 + 1411 y_1_1_0 - t_2_1
   + 1411 y_1_2_1 + 1411 z_1_1_0_2_1 <= 4233
 no_overlap2_1_1_0_2_1: - t_1_0 + 1411 y_1_1_0 + t_2_1 + Ps_2_1
   + 1411 y_1_2_1 - 1411 z_1_1_0_2_1 <= 2822
 no_overlap1_1_1_1_2_0: t_1_1 + Ps_1_1 + 1411 y_1_1_1 - t_2_0
   + 1411 y_1_2_0 + 1411 z_1_1_1_2_0 <= 4233
 no_overlap2_1_1_1_2_0: - t_1_1 + 1411 y_1_1_1 + t_2_0 + Ps_2_0
   + 1411 y_1_2_0 - 1411 z_1_1_1_2_0 <= 2822
 no_overlap1_1_1_1_2_1: t_1_1 + Ps_1_1 + 1411 y_1_1_1 - t_2_1
   + 1411 y_1_2_1 + 1411 z_1_1_1_2_1 <= 4233
 no_overlap2_1_1_1_2_1: - t_1_1 + 1411 y_1_1_1 + t_2_1 + Ps_2_1
   + 1411 y_1_2_1 - 1411 z_1_1_1_2_1 <= 2822
 no_overlap1_1_2_0_2_1: t_2_0 + Ps_2_0 + 1411 y_1_2_0 - t_2_1
   + 1411 y_1_2_1 + 1411 z_1_2_0_2_1 <= 4233
 no_overlap2_1_2_0_2_1: - t_2_0 + 1411 y_1_2_0 + t_2_1 + Ps_2_1
   + 1411 y_1_2_1 - 1411 z_1_2_0_2_1 <= 2822
 cmax_job_0: Cmax - t_0_1 - Ps_0_1 >= 0
 cmax_job_1: Cmax - t_1_1 - Ps_1_1 >= 0
 cmax_job_2: Cmax - t_2_1 - Ps_2_1 >= 0
Bounds
Binaries
 y_0_0_0 y_0_0_1 y_1_0_1 y_0_1_0 y_1_1_0 y_1_1_1 y_0_2_0 y_1_2_0 y_0_2_1
 y_1_2_1 z_0_0_0_0_1 z_0_0_0_1_0 z_0_0_0_2_0 z_0_0_0_2_1 z_0_0_1_1_0
 z_0_0_1_2_0 z_0_0_1_2_1 z_0_1_0_2_0 z_0_1_0_2_1 z_0_2_0_2_1 z_1_0_1_1_0
 z_1_0_1_1_1 z_1_0_1_2_0 z_1_0_1_2_1 z_1_1_0_1_1 z_1_1_0_2_0 z_1_1_0_2_1
 z_1_1_1_2_0 z_1_1_1_2_1 z_1_2_0_2_1
End
